c Result of efficient AIG-to-CNF conversion using package CNF
p cnf 183 615
-2 3 119 120 148 0
-2 -3 -119 120 148 0
2 -148 0
2 -3 119 0
2 -120 0
2 3 -119 0
3 -4 94 0
3 94 -95 0
3 -4 -95 0
-3 -94 95 0
-3 4 -94 0
-3 4 95 0
-4 23 50 0
-4 5 -50 0
4 -23 50 0
4 -5 -50 0
-5 6 7 0
-5 -6 -7 0
5 -6 7 0
5 6 -7 0
6 166 -182 0
6 -166 182 0
-6 -166 -182 0
-6 166 182 0
-7 8 10 0
-7 8 9 0
7 -8 0
7 -9 -10 0
8 -165 -181 0
-8 165 0
-8 181 0
9 165 -181 0
9 -165 181 0
-9 -165 -181 0
-9 165 181 0
10 -180 11 0
10 -11 12 0
-10 180 11 0
-10 -11 -12 0
-11 -164 -180 0
-11 164 180 0
11 164 -180 0
11 -164 180 0
-12 11 13 0
-12 -11 -13 0
12 -11 13 0
12 11 -13 0
-13 15 16 0
-13 14 16 17 0
13 -16 0
13 -14 -15 0
13 -15 -17 0
14 -162 -178 0
-14 162 0
-14 178 0
-15 -163 -179 0
-15 163 179 0
15 163 -179 0
15 -163 179 0
16 -163 -179 0
-16 163 0
-16 179 0
17 -18 -19 0
-17 18 0
-17 19 0
18 162 -178 0
18 -162 178 0
-18 -162 -178 0
-18 162 178 0
-19 20 22 0
-19 20 21 0
19 -20 0
19 -21 -22 0
20 -161 -177 0
-20 161 0
-20 177 0
21 -160 -176 0
-21 160 0
-21 176 0
22 161 -177 0
22 -161 177 0
-22 -161 -177 0
-22 161 177 0
-23 6 24 0
-23 -6 -24 0
23 -6 24 0
23 6 -24 0
-24 8 9 0
-24 8 25 0
24 -8 0
24 -9 -25 0
-25 11 49 0
-25 26 49 0
25 -49 0
25 -11 -26 0
-26 15 16 0
-26 14 16 27 0
26 -16 0
26 -14 -15 0
26 -15 -27 0
27 -18 -28 0
-27 18 0
-27 28 0
-28 20 22 0
-28 20 29 0
28 -20 0
28 -22 -29 0
-29 21 -31 0
-29 21 30 0
29 -21 0
29 -30 31 0
30 160 -176 0
30 -160 176 0
-30 -160 -176 0
-30 160 176 0
-31 30 32 0
-31 -30 -32 0
31 -30 32 0
31 30 -32 0
-32 46 47 0
-32 45 47 0
-32 33 47 0
32 -47 0
32 -33 -45 -46 0
-33 157 34 0
-33 173 34 0
33 -34 0
33 -157 -173 0
34 157 -173 -35 0
34 -157 173 -35 0
-34 35 0
-34 157 173 0
-34 -157 -173 0
-35 172 36 0
-35 156 172 0
-35 156 36 0
35 -156 -172 0
35 -172 -36 0
35 -156 -36 0
-36 155 37 0
-36 171 37 0
36 -37 0
36 -155 -171 0
37 -38 -39 0
-37 38 0
-37 39 0
38 155 -171 0
38 -155 171 0
-38 -155 -171 0
-38 155 171 0
39 -170 40 0
39 -40 41 0
-39 170 40 0
-39 -40 -41 0
-40 -154 -170 0
-40 154 170 0
40 154 -170 0
40 -154 170 0
-41 -40 -42 0
-41 40 42 0
41 40 -42 0
41 -40 42 0
42 -153 -169 0
42 -169 -43 0
42 -153 -43 0
-42 153 43 0
-42 169 43 0
-42 153 169 0
43 -168 44 0
43 -151 -167 -44 0
-43 167 -44 0
-43 168 44 0
-43 151 -44 0
-44 -152 -168 0
-44 152 168 0
44 152 -168 0
44 -152 168 0
-45 -158 -174 0
-45 158 174 0
45 158 -174 0
45 -158 174 0
46 159 -175 0
46 -159 175 0
-46 -159 -175 0
-46 159 175 0
-47 48 46 0
-47 158 48 0
-47 174 48 0
47 -48 0
47 -158 -174 -46 0
48 -159 -175 0
-48 159 0
-48 175 0
49 -164 -180 0
-49 164 0
-49 180 0
50 -51 0
-50 51 0
-51 -52 53 93 0
-51 53 89 93 0
51 -93 0
51 -53 0
51 52 -89 0
52 -166 -182 0
-52 166 0
-52 182 0
53 -54 -56 88 0
53 55 -56 88 0
-53 -88 0
-53 56 0
-53 54 -55 0
-54 9 25 0
-54 -9 -25 0
54 -9 25 0
54 9 -25 0
-55 -9 -10 0
-55 9 10 0
55 9 -10 0
55 -9 10 0
-56 -85 87 0
-56 57 80 87 0
56 -87 0
56 -57 85 0
56 -80 85 0
57 -58 -75 77 0
57 -58 76 77 0
57 -75 76 77 0
-57 75 -76 0
-57 58 -76 0
-57 -77 0
-57 58 75 0
58 -59 -31 -72 0
58 -60 -31 -72 0
-58 72 0
-58 31 0
-58 59 60 0
-59 33 45 0
-59 -33 -45 0
59 -33 45 0
59 33 -45 0
-60 62 68 70 0
-60 61 68 70 0
60 -68 0
60 -70 0
60 -61 -62 0
61 38 -39 0
61 -38 39 0
-61 -38 -39 0
-61 38 39 0
-62 65 41 0
-62 63 41 67 0
62 -41 0
62 -65 -67 0
62 -63 -65 0
-63 -44 -64 0
-63 44 64 0
63 44 -64 0
63 -44 64 0
64 -151 -167 0
-64 151 0
-64 167 0
-65 43 66 0
-65 -43 -66 0
65 -43 66 0
65 43 -66 0
-66 -153 -169 0
-66 153 169 0
66 153 -169 0
66 -153 169 0
67 151 -167 0
67 -151 167 0
-67 -151 -167 0
-67 151 167 0
-68 69 36 0
-68 -69 -36 0
68 -69 36 0
68 69 -36 0
69 156 -172 0
69 -156 172 0
-69 -156 -172 0
-69 156 172 0
70 -71 35 0
70 71 -35 0
-70 71 35 0
-70 -71 -35 0
71 157 -173 0
71 -157 173 0
-71 -157 -173 0
-71 157 173 0
-72 46 73 0
-72 -46 -73 0
72 -46 73 0
72 46 -73 0
-73 174 45 0
-73 74 34 -45 0
73 -174 45 0
73 -74 -45 0
73 -34 -45 0
74 -157 -173 0
-74 157 0
-74 173 0
-75 22 29 0
-75 -22 -29 0
75 -22 29 0
75 22 -29 0
-76 -21 -22 0
-76 21 22 0
76 21 -22 0
76 -21 22 0
77 78 -79 0
-77 -78 0
-77 79 0
-78 18 28 0
-78 -18 -28 0
78 -18 28 0
78 18 -28 0
-79 18 19 0
-79 -18 -19 0
79 -18 19 0
79 18 -19 0
-80 78 -83 0
-80 -79 81 0
-80 -79 -83 0
-80 78 81 0
80 -78 79 0
80 -81 83 0
-81 15 82 0
-81 -15 -82 0
81 -15 82 0
81 15 -82 0
-82 14 27 0
82 -14 0
82 -27 0
-83 15 84 0
-83 -15 -84 0
83 -15 84 0
83 15 -84 0
-84 14 17 0
84 -14 0
84 -17 0
-85 12 -81 0
-85 83 -86 0
-85 -81 -86 0
-85 12 83 0
85 81 -83 0
85 -12 86 0
-86 11 26 0
-86 -11 -26 0
86 -11 26 0
86 11 -26 0
-87 86 -55 0
-87 -12 54 0
-87 86 54 0
-87 -12 -55 0
87 -54 55 0
87 12 -86 0
88 -5 23 0
-88 5 0
-88 -23 0
-89 52 6 0
-89 52 8 90 0
89 -52 0
89 -6 -8 0
89 -6 -90 0
90 -9 -91 0
-90 9 0
-90 91 0
-91 11 49 0
-91 16 49 92 0
91 -49 0
91 -11 -92 0
91 -11 -16 0
92 -15 -82 0
-92 15 0
-92 82 0
93 5 -23 0
-93 -5 0
-93 23 0
-94 23 -50 0
-94 5 50 0
94 -5 50 0
94 -23 -50 0
95 -96 97 0
95 97 -98 0
95 -96 -98 0
-95 -97 98 0
-95 96 -97 0
-95 96 98 0
-96 55 -50 0
-96 54 50 0
96 -54 50 0
96 -55 -50 0
-97 55 50 0
-97 54 -50 0
97 -55 50 0
97 -54 -50 0
98 -99 100 0
98 100 -101 0
98 -99 -101 0
-98 -100 101 0
-98 99 -100 0
-98 99 101 0
-99 86 50 0
-99 12 -50 0
99 -86 50 0
99 -12 -50 0
-100 86 -50 0
-100 12 50 0
100 -12 50 0
100 -86 -50 0
101 -102 103 0
101 103 -104 0
101 -102 -104 0
-101 -103 104 0
-101 102 -103 0
-101 102 104 0
-102 83 -50 0
-102 81 50 0
102 -81 50 0
102 -83 -50 0
-103 83 50 0
-103 81 -50 0
103 -83 50 0
103 -81 -50 0
104 -105 -106 0
104 -106 118 0
104 -105 118 0
-104 106 -118 0
-104 105 106 0
-104 105 -118 0
-105 79 -50 0
-105 78 50 0
105 -78 50 0
105 -79 -50 0
106 -107 108 0
106 108 -109 0
106 -107 -109 0
-106 -108 109 0
-106 107 -108 0
-106 107 109 0
-107 76 -50 0
-107 75 50 0
107 -75 50 0
107 -76 -50 0
-108 76 50 0
-108 75 -50 0
108 -76 50 0
108 -75 -50 0
109 31 -50 0
109 -31 -110 0
-109 -31 110 0
-109 31 50 0
110 72 -50 0
110 -72 -111 0
-110 -72 111 0
-110 72 50 0
111 59 -112 0
111 -59 50 0
-111 -59 -50 0
-111 59 112 0
112 -70 50 0
112 70 -113 0
-112 -70 -50 0
-112 70 113 0
113 68 -114 0
113 -68 50 0
-113 -68 -50 0
-113 68 114 0
114 61 -50 0
114 -61 -115 0
-114 -61 115 0
-114 61 50 0
115 41 -116 0
115 -41 50 0
-115 -41 -50 0
-115 41 116 0
116 65 -50 0
116 63 -65 -117 0
116 -63 -65 50 0
-116 65 50 0
-116 63 -65 117 0
-116 -63 -65 -50 0
117 67 -50 0
-117 -67 0
-117 50 0
-118 79 50 0
-118 78 -50 0
118 -79 50 0
118 -78 -50 0
119 -52 89 50 0
119 52 -89 -50 0
-119 -52 -50 0
-119 -89 50 0
-119 52 89 0
-120 121 142 145 0
120 -145 0
120 -142 0
120 -121 0
121 110 122 -124 -138 0
121 -110 -122 -124 -138 0
-121 138 0
-121 110 -122 0
-121 124 0
-121 -110 122 0
-122 123 0
122 -123 0
123 -31 0
-123 31 0
124 -127 -133 0
124 115 125 -133 0
124 -115 -125 -133 0
-124 133 0
-124 115 -125 127 0
-124 -115 125 127 0
-125 126 0
125 -126 0
126 -61 0
-126 61 0
127 -128 131 0
127 -63 -128 0
127 67 -128 0
-127 128 0
-127 63 -67 -131 0
-128 -116 -129 0
-128 116 129 0
128 116 -129 0
128 -116 129 0
129 -130 0
-129 130 0
-130 41 0
130 -41 0
-131 132 0
131 -132 0
132 -65 0
-132 65 0
133 -114 113 134 -136 0
133 114 113 -134 -136 0
133 114 -113 -134 136 0
133 -114 -113 134 136 0
-133 -114 -134 0
-133 114 134 0
-133 113 136 0
-133 -113 -136 0
134 -135 0
-134 135 0
-135 68 0
135 -68 0
136 -137 0
-136 137 0
-137 70 0
137 -70 0
138 112 -111 -139 -141 0
138 112 111 -139 141 0
138 -112 -111 139 -141 0
138 -112 111 139 141 0
-138 -112 -139 0
-138 112 139 0
-138 111 -141 0
-138 -111 141 0
139 -140 0
-139 140 0
-140 59 0
140 -59 0
141 -72 0
-141 72 0
-142 -109 106 -143 144 0
-142 109 -106 143 -144 0
-142 109 106 143 144 0
-142 -109 -106 -143 -144 0
142 -109 143 0
142 109 -143 0
142 106 -144 0
142 -106 144 0
143 -75 76 0
143 75 -76 0
-143 75 76 0
-143 -75 -76 0
144 -78 79 0
144 78 -79 0
-144 78 79 0
-144 -78 -79 0
-145 -104 101 -146 147 0
-145 104 -101 146 -147 0
-145 104 101 146 147 0
-145 -104 -101 -146 -147 0
145 -104 146 0
145 104 -146 0
145 101 -147 0
145 -101 147 0
146 -81 83 0
146 81 -83 0
-146 81 83 0
-146 -81 -83 0
147 -12 86 0
147 12 -86 0
-147 12 86 0
-147 -12 -86 0
-148 -98 95 -149 150 0
-148 98 -95 149 -150 0
-148 98 95 149 150 0
-148 -98 -95 -149 -150 0
148 -98 149 0
148 98 -149 0
148 95 -150 0
148 -95 150 0
149 -54 55 0
149 54 -55 0
-149 54 55 0
-149 -54 -55 0
150 -5 23 0
150 5 -23 0
-150 5 23 0
-150 -5 -23 0
-183 0
2 0

